Instance: E045-04f.dat
Class:  5
   44 --- number of customers (no depot)
   10 --- number of vehicles
  122 --- number of items
Capacity - height - width of vehicles
  2010     40     20
Node - x - y - demand
    0     0.0     0.0     0.0
    1     3.0     5.0    33.0
    2     2.5     9.0    15.0
    3    48.0    16.0    10.0
    4    48.0    17.0    40.0
    5    69.0    16.0    15.0
    6    70.0    16.0     5.0
    7    64.0    13.0    77.0
    8     3.0   -22.0   435.0
    9     2.5     1.0   165.0
   10   -13.0    11.5   120.0
   11   -20.0    45.0    65.0
   12    -9.0    52.0    23.0
   13    -8.5    53.0    18.0
   14    -8.0    52.0   550.0
   15     2.0     2.0    78.0
   16    -2.0     9.0   627.0
   17   -10.0    20.0     9.0
   18   -20.0    19.0    96.0
   19   -15.0   -21.0   116.0
   20    -5.0    -9.0   116.0
   21    -4.5    -9.0    83.0
   22   -52.0   -36.0    41.0
   23   -53.0   -36.0   645.0
   24     0.0     0.0   694.0
   25   -30.0   -18.0   573.0
   26   -51.0   -35.0     1.0
   27    81.0     9.0   181.0
   28    84.0   -99.0   106.0
   29    82.0    -6.0    52.0
   30    40.0   -12.0   117.0
   31    50.0    -7.0    52.0
   32    51.0    -8.0  1300.0
   33    63.0   -17.0    57.0
   34    45.0    -1.0    28.0
   35    54.0     8.5    84.0
   36    29.0     4.0     1.0
   37    21.0     3.0    54.0
   38    22.0     2.0    19.0
   39    39.0    -3.0    88.0
   40    39.5    -3.0    41.0
   41    40.0   -11.0   238.0
   42    28.0    -2.0    66.0
   43    24.0   -18.0    44.0
   44    24.0   -19.0    42.0
Node - number of items - h - w for each item
    0   0
    1   5    6    8    5    8   12    5    4    4    5    2
    2   4    5    8    8    7   12    3    7    3
    3   5    4    5   11    4    6    4    7    3    6    2
    4   1    6    4
    5   5    6    5   21    4    5    3   20    2    6    2
    6   1   20    2
    7   5   11    4    9    4    6    4    9    3    4    2
    8   3    6   10    6    6    6    3
    9   3    5    9    4    9   18    3
   10   5   13    4    5    4    8    3    6    3    5    3
   11   2   12    2    7    2
   12   1   17    3
   13   1   12    5
   14   2    4    9   18    3
   15   1    5    3
   16   2    8    9    6    6
   17   2    5    9   18    2
   18   2   23    3   10    3
   19   2    6    7   21    4
   20   1    9    4
   21   5    8    8   12    4   10    4   14    2    4    2
   22   5    6    6   10    5    5    5   17    3    9    2
   23   3    8   10    4    9   12    5
   24   1    4    4
   25   3    7   10   12    5    9    4
   26   2    4    9   16    3
   27   1    7    5
   28   1   10    3
   29   5   21    4   20    4   12    4    5    4    5    2
   30   5    5    9   10    4    9    3    5    3    8    2
   31   1    6    3
   32   3    7    6   18    3    6    3
   33   3    6   12    8    6    8    3
   34   5    7    6    8    4   22    3   10    3    6    3
   35   3    5    5    9    4   19    3
   36   2    8    7   23    3
   37   2    8    5   21    3
   38   2    7   10    7    3
   39   2    8    3    5    3
   40   2   23    4    5    3
   41   2    7    5   15    3
   42   3   20    3   10    3    6    3
   43   5    5    8    9    5    5    5    6    4    5    4
   44   3    5   10    7    5    9    3
